800 800 1900 100
1900 100 3000 700
3000 700 4200 1000
3000 100 2600 1200
3000 300 3100 1300
1000 1500 2000 1000
2000 1000 3300 1500
2600 1200 2300 2500
3300 1500 3350 2300
2300 2500 1400 2900
1400 2900 200 2900
1400 2900 1700 3400
1700 3400 1500 4000
2300 2500 3300 2300
2300 2500 3200 3400

2800 850 1000
1600 3900 800
3600 3200 1200
1700 2600 700
2700 2000 500
2100 2400 1000